
===== New CPLEX run =====
Instance: /home/yorig/tuner/mpils-tests/instances/miplib/easy/lotsize.mps
Config: /scratch/yorig/mpils-results-grid-ticks-10000/easy/16proc/seed-9/4_lotsize_seed-9_20260425_202405/iterated_local_search/run_2_worker_7/ils_config_6074154922699684349.prm
========================

Selected objective sense:  MINIMIZE
Selected objective  name:  R1921
Selected RHS        name:  B
Selected bound      name:  BOUND
Version identifier: 22.1.2.0 | 2024-11-26 | 0edbb82fd
CPXPARAM_Threads                                 8
CPXPARAM_Parallel                                1
CPXPARAM_MIP_Cuts_Cliques                        -1
CPXPARAM_MIP_Strategy_VariableSelect             -1
CPXPARAM_MIP_Cuts_Implied                        2
CPXPARAM_MIP_Cuts_GUBCovers                      -1
CPXPARAM_MIP_Limits_GomoryCand                   100
CPXPARAM_MIP_Cuts_Gomory                         -1
CPXPARAM_MIP_Cuts_PathCut                        1
CPXPARAM_MIP_Cuts_MIRCut                         2
CPXPARAM_MIP_Cuts_Disjunctive                    -1
CPXPARAM_Emphasis_MIP                            3
CPXPARAM_DetTimeLimit                            10000
Tried aggregator 1 time.
MIP Presolve eliminated 595 rows and 0 columns.
MIP Presolve added 1190 rows and 0 columns.
MIP Presolve modified 10 coefficients.
Reduced MIP has 2515 rows, 2985 columns, and 7755 nonzeros.
Reduced MIP has 1195 binaries, 0 generals, 0 SOSs, and 0 indicators.
Presolve time = 0.00 sec. (4.53 ticks)
Probing fixed 0 vars, tightened 5487 bounds.
Probing time = 0.01 sec. (18.38 ticks)
Tried aggregator 2 times.
Detecting symmetries...
MIP Presolve modified 1206 coefficients.
Aggregator did 10 substitutions.
Reduced MIP has 2505 rows, 2975 columns, and 7735 nonzeros.
Reduced MIP has 1195 binaries, 0 generals, 0 SOSs, and 0 indicators.
Presolve time = 0.00 sec. (6.66 ticks)
Probing fixed 0 vars, tightened 2401 bounds.
Probing time = 0.00 sec. (6.41 ticks)
Clique table members: 160.
MIP emphasis: best bound.
MIP search method: dynamic search.
Parallel mode: deterministic, using up to 8 threads.
Root relaxation solution time = 0.01 sec. (9.68 ticks)

        Nodes                                         Cuts/
   Node  Left     Objective  IInf  Best Integer    Best Bound    ItCnt     Gap

      0     0   348385.3466   472                 348385.3466      882         
      0     0   577159.3578   441                   Cuts: 726     1820         
      0     0   815091.0851   708                   Cuts: 726     2712         
*     0+    0                       1.01740e+07   815091.0851            91.99%
*     0+    0                      7973370.0000   815091.0851            89.78%
      0     0   939148.0819   671  7973370.0000     Cuts: 726     3393   88.22%
      0     0  1022684.6217   760  7973370.0000     Cuts: 726     4081   86.94%
*     0+    0                      2368377.0000  1041513.4298            56.02%
      0     0  1143363.1044   710  2368377.0000     Cuts: 726     4799   50.90%
Detecting symmetries...
      0     0  1209843.6380   740  2368377.0000     Cuts: 726     5455   47.90%
      0     0  1262637.9076   746  2368377.0000     Cuts: 726     6367   46.01%
      0     0  1299334.8904   804  2368377.0000     Cuts: 726     7063   45.14%
      0     0  1315263.7537   842  2368377.0000     Cuts: 604     7534   44.47%
      0     0  1326409.8824   826  2368377.0000     Cuts: 551     7947   43.99%
      0     0  1332103.2461   839  2368377.0000     Cuts: 311     8229   43.75%
      0     0  1335072.2256   857  2368377.0000     Cuts: 351     8497   43.63%
      0     0  1337186.9983   879  2368377.0000     Cuts: 188     8676   43.54%
      0     0  1338704.3514   863  2368377.0000     Cuts: 178     8837   43.48%
      0     0  1339909.4714   846  2368377.0000     Cuts: 153     8974   43.42%
      0     0  1340781.1226   841  2368377.0000     Cuts: 206     9096   43.39%
      0     0  1341607.6442   849  2368377.0000     Cuts: 128     9220   43.35%
      0     0  1342297.9461   854  2368377.0000     Cuts: 174     9338   43.32%
      0     0  1342815.1925   872  2368377.0000      Cuts: 93     9405   43.30%
      0     0  1343020.1923   873  2368377.0000      Cuts: 56     9472   43.29%
*     0+    0                      2364869.0000  1343020.1923            43.21%
      0     0  1343112.1322   869  2364869.0000      Cuts: 58     9510   43.21%
*     0+    0                      2014707.0000  1343112.1322            33.33%
Detecting symmetries...
      0     2  1343112.1322   869  2014707.0000  1343112.1322     9510   33.33%
Elapsed time = 5.82 sec. (9676.95 ticks, tree = 0.02 MB, solutions = 5)
     14    13  1344628.1661   849  2014707.0000  1344444.0616    10442   33.27%

Cover cuts applied:  10
Implied bound cuts applied:  25
Flow cuts applied:  480
Mixed integer rounding cuts applied:  1148
Flow path cuts applied:  27
Multi commodity flow cuts applied:  53
Lift and project cuts applied:  42

Root node processing (before b&c):
  Real time             =    5.80 sec. (9669.76 ticks)
Parallel b&c, 8 threads:
  Real time             =    0.21 sec. (341.53 ticks)
  Sync time (average)   =    0.06 sec.
  Wait time (average)   =    0.00 sec.
                          ------------
Total (root+branch&cut) =    6.01 sec. (10011.29 ticks)
Gap: 33.26%
Upper bound: 2.01471e+06
Lower bound: 1.34465e+06
End of CPLEX run. Time: 6.01644 seconds

===== New CPLEX run =====
Instance: /home/yorig/tuner/mpils-tests/instances/miplib/easy/lotsize.mps
Config: /scratch/yorig/mpils-results-grid-ticks-10000/easy/16proc/seed-9/4_lotsize_seed-9_20260425_202405/iterated_local_search/run_2_worker_7/ils_config_11461959376209316998.prm
========================

Selected objective sense:  MINIMIZE
Selected objective  name:  R1921
Selected RHS        name:  B
Selected bound      name:  BOUND
Version identifier: 22.1.2.0 | 2024-11-26 | 0edbb82fd
CPXPARAM_Threads                                 8
CPXPARAM_Parallel                                1
CPXPARAM_MIP_Cuts_Cliques                        -1
CPXPARAM_MIP_Strategy_VariableSelect             -1
CPXPARAM_MIP_Cuts_Implied                        2
CPXPARAM_MIP_Cuts_GUBCovers                      -1
CPXPARAM_MIP_Limits_GomoryCand                   100
CPXPARAM_MIP_Cuts_Gomory                         -1
CPXPARAM_MIP_Cuts_PathCut                        1
CPXPARAM_MIP_Cuts_MIRCut                         2
CPXPARAM_MIP_Cuts_Disjunctive                    -1
CPXPARAM_Emphasis_MIP                            5
CPXPARAM_DetTimeLimit                            10000
Tried aggregator 1 time.
MIP Presolve eliminated 595 rows and 0 columns.
MIP Presolve added 1190 rows and 0 columns.
MIP Presolve modified 10 coefficients.
Reduced MIP has 2515 rows, 2985 columns, and 7755 nonzeros.
Reduced MIP has 1195 binaries, 0 generals, 0 SOSs, and 0 indicators.
Presolve time = 0.00 sec. (4.53 ticks)
Probing fixed 0 vars, tightened 5487 bounds.
Probing time = 0.01 sec. (18.38 ticks)
Tried aggregator 2 times.
Detecting symmetries...
MIP Presolve modified 1206 coefficients.
Aggregator did 10 substitutions.
Reduced MIP has 2505 rows, 2975 columns, and 7735 nonzeros.
Reduced MIP has 1195 binaries, 0 generals, 0 SOSs, and 0 indicators.
Presolve time = 0.00 sec. (6.66 ticks)
Probing fixed 0 vars, tightened 2401 bounds.
Probing time = 0.00 sec. (6.41 ticks)
Clique table members: 190.
MIP emphasis: heuristic.
MIP search method: dynamic search.
Parallel mode: deterministic, using up to 8 threads.
Root relaxation solution time = 0.01 sec. (9.71 ticks)

        Nodes                                         Cuts/
   Node  Left     Objective  IInf  Best Integer    Best Bound    ItCnt     Gap

      0     0   348385.3466   472                 348385.3466      882         
*     0+    0                       1.40386e+07   348385.3466            97.52%
*     0+    0                       1.01740e+07   348385.3466            96.58%
*     0+    0                      7973370.0000   348385.3466            95.63%
      0     0   411635.1739   561  7973370.0000     Cuts: 726     1545   88.36%
      0     0   637114.0609   575  7973370.0000     Cuts: 726     2253   87.18%
      0     0   844207.7616   672  7973370.0000     Cuts: 726     2969   87.18%
      0     0  1015551.9685   720  7973370.0000     Cuts: 726     3713   85.50%
      0     0  1162256.6706   678  7973370.0000     Cuts: 726     4546   84.93%
Detecting symmetries...
      0     0  1230788.5773   732  7973370.0000     Cuts: 726     5198   84.09%
      0     0  1278229.1714   745  7973370.0000     Cuts: 726     5824   83.87%
      0     0  1303416.7955   754  7973370.0000     Cuts: 491     6339   83.65%
      0     0  1315082.4731   749  7973370.0000     Cuts: 402     6754   83.51%
      0     0  1321594.3760   760  7973370.0000     Cuts: 338     7070   83.42%
      0     0  1325683.0076   781  7973370.0000     Cuts: 245     7292   83.37%
      0     0  1330179.4295   773  7973370.0000     Cuts: 253     7500   83.32%
      0     0  1332442.6935   799  7973370.0000     Cuts: 165     7660   83.29%
      0     0  1333328.3358   795  7973370.0000     Cuts: 111     7766   83.28%
      0     0  1334425.2939   806  7973370.0000      Cuts: 89     7859   83.26%
      0     0  1335385.1544   814  7973370.0000      Cuts: 95     7968   83.25%
      0     0  1336260.5404   817  7973370.0000     Cuts: 134     8075   83.24%
      0     0  1336513.1271   810  7973370.0000      Cuts: 71     8129   83.24%
      0     0  1336976.6188   824  7973370.0000      Cuts: 55     8228   83.23%
      0     0  1337673.7020   815  7973370.0000      Cuts: 70     8298   83.22%
      0     0  1338038.0530   821  7973370.0000      Cuts: 38     8353   83.22%
      0     0  1338164.3900   817  7973370.0000      Cuts: 46     8390   83.22%
      0     0  1338436.8535   820  7973370.0000      Cuts: 28     8426   83.21%
*     0+    0                      3045522.0000  1338436.8535            56.05%
*     0+    0                      2917944.0000  1338436.8535            54.13%
      0     0  -1.00000e+75     0  2917944.0000  1338436.8535     8426   54.13%
*     0+    0                      2904965.0000  1338436.8535            53.93%
*     0+    0                      2772584.0000  1338436.8535            51.73%
*     0+    0                      2655968.0000  1338436.8535            49.61%
*     0+    0                      2649978.0000  1338436.8535            49.49%
*     0+    0                      2553672.0000  1338436.8535            47.59%
*     0+    0                      2483636.0000  1338436.8535            46.11%
*     0+    0                      2434322.0000  1338436.8535            45.02%
*     0+    0                      2434088.0000  1338436.8535            45.01%
*     0+    0                      2417844.0000  1338436.8535            44.64%
      0     0  -1.00000e+75     0  2417844.0000  1338436.8535     8426   44.64%

Cover cuts applied:  12
Implied bound cuts applied:  38
Mixed integer rounding cuts applied:  1427
Flow path cuts applied:  48
Multi commodity flow cuts applied:  40

Root node processing (before b&c):
  Real time             =    6.21 sec. (10008.93 ticks)
Parallel b&c, 8 threads:
  Real time             =    0.00 sec. (0.00 ticks)
  Sync time (average)   =    0.00 sec.
  Wait time (average)   =    0.00 sec.
                          ------------
Total (root+branch&cut) =    6.21 sec. (10008.93 ticks)
Gap: 44.64%
Upper bound: 2.41784e+06
Lower bound: 1.33844e+06
End of CPLEX run. Time: 6.21471 seconds

===== New CPLEX run =====
Instance: /home/yorig/tuner/mpils-tests/instances/miplib/easy/lotsize.mps
Config: /scratch/yorig/mpils-results-grid-ticks-10000/easy/16proc/seed-9/4_lotsize_seed-9_20260425_202405/iterated_local_search/run_2_worker_7/ils_config_13457943865134587966.prm
========================

Selected objective sense:  MINIMIZE
Selected objective  name:  R1921
Selected RHS        name:  B
Selected bound      name:  BOUND
Version identifier: 22.1.2.0 | 2024-11-26 | 0edbb82fd
CPXPARAM_Threads                                 8
CPXPARAM_Parallel                                1
CPXPARAM_MIP_Strategy_VariableSelect             -1
CPXPARAM_MIP_Cuts_Implied                        2
CPXPARAM_MIP_Cuts_GUBCovers                      -1
CPXPARAM_MIP_Limits_GomoryCand                   100
CPXPARAM_MIP_Cuts_Gomory                         -1
CPXPARAM_MIP_Cuts_PathCut                        1
CPXPARAM_MIP_Cuts_MIRCut                         2
CPXPARAM_MIP_Cuts_Disjunctive                    -1
CPXPARAM_Emphasis_MIP                            3
CPXPARAM_DetTimeLimit                            10000
Tried aggregator 1 time.
MIP Presolve eliminated 595 rows and 0 columns.
MIP Presolve added 1190 rows and 0 columns.
MIP Presolve modified 10 coefficients.
Reduced MIP has 2515 rows, 2985 columns, and 7755 nonzeros.
Reduced MIP has 1195 binaries, 0 generals, 0 SOSs, and 0 indicators.
Presolve time = 0.00 sec. (4.53 ticks)
Probing fixed 0 vars, tightened 5487 bounds.
Probing time = 0.01 sec. (18.38 ticks)
Tried aggregator 2 times.
Detecting symmetries...
MIP Presolve modified 1206 coefficients.
Aggregator did 10 substitutions.
Reduced MIP has 2505 rows, 2975 columns, and 7735 nonzeros.
Reduced MIP has 1195 binaries, 0 generals, 0 SOSs, and 0 indicators.
Presolve time = 0.00 sec. (6.66 ticks)
Probing fixed 0 vars, tightened 2401 bounds.
Probing time = 0.00 sec. (6.41 ticks)
Clique table members: 160.
MIP emphasis: best bound.
MIP search method: dynamic search.
Parallel mode: deterministic, using up to 8 threads.
Root relaxation solution time = 0.01 sec. (9.68 ticks)

        Nodes                                         Cuts/
   Node  Left     Objective  IInf  Best Integer    Best Bound    ItCnt     Gap

      0     0   348385.3466   472                 348385.3466      882         
      0     0   577159.3578   441                   Cuts: 726     1820         
      0     0   813920.8991   712                   Cuts: 726     2716         
*     0+    0                       1.01740e+07   813920.8991            92.00%
*     0+    0                      7973370.0000   813920.8991            89.79%
      0     0   935960.2113   686  7973370.0000     Cuts: 726     3440   88.26%
      0     0  1020731.4160   763  7973370.0000     Cuts: 726     4134   86.99%
*     0+    0                      2368377.0000  1037617.6672            56.19%
      0     0  1139427.9657   696  2368377.0000     Cuts: 726     4868   51.24%
Detecting symmetries...
      0     0  1206749.6961   721  2368377.0000     Cuts: 726     5514   48.05%
      0     0  1269354.0014   753  2368377.0000     Cuts: 726     6228   46.32%
      0     0  1295610.0464   778  2368377.0000     Cuts: 726     6825   45.12%
      0     0  1317977.4178   789  2368377.0000     Cuts: 583     7368   44.35%
*     0+    0                      2355102.0000  1317977.4178            44.04%
      0     0  1328071.9203   812  2355102.0000     Cuts: 473     7788   43.61%
      0     0  1336391.4129   786  2355102.0000     Cuts: 411     8212   43.26%
      0     0  1340382.5125   818  2355102.0000     Cuts: 293     8490   43.09%
      0     0  1343925.4144   816  2355102.0000     Cuts: 286     8721   42.94%
      0     0  1348246.5751   832  2355102.0000     Cuts: 251     8944   42.75%
      0     0  1351426.7730   848  2355102.0000     Cuts: 179     9139   42.62%
      0     0  1353464.0541   846  2355102.0000     Cuts: 218     9331   42.53%
      0     0  1354516.1308   851  2355102.0000     Cuts: 138     9464   42.49%
      0     0  1355121.2295   850  2355102.0000     Cuts: 120     9567   42.46%
      0     0  1355653.5154   859  2355102.0000      Cuts: 80     9666   42.44%
      0     0  1355918.8737   860  2355102.0000      Cuts: 69     9741   42.43%
      0     0  1356395.9820   841  2355102.0000      Cuts: 65     9820   42.41%
      0     0  1356891.9427   839  2355102.0000      Cuts: 68     9874   42.39%
*     0+    0                      2337896.0000  1356891.9427            41.96%
      0     0  1357358.9121   841  2337896.0000      Cuts: 80     9934   41.94%
      0     0  1357606.9685   850  2337896.0000      Cuts: 62    10008   41.93%
*     0+    0                      2302269.0000  1357606.9685            41.03%
Detecting symmetries...
      0     2  1357606.9685   850  2302269.0000  1357606.9685    10008   41.03%
Elapsed time = 5.92 sec. (9691.88 ticks, tree = 0.02 MB, solutions = 6)
      6     8  1359492.7977   849  2302269.0000  1358341.9394    10590   41.00%

Clique cuts applied:  1
Cover cuts applied:  11
Implied bound cuts applied:  22
Flow cuts applied:  415
Mixed integer rounding cuts applied:  1145
Flow path cuts applied:  19
Multi commodity flow cuts applied:  46
Lift and project cuts applied:  27

Root node processing (before b&c):
  Real time             =    5.91 sec. (9684.87 ticks)
Parallel b&c, 8 threads:
  Real time             =    0.21 sec. (322.97 ticks)
  Sync time (average)   =    0.09 sec.
  Wait time (average)   =    0.00 sec.
                          ------------
Total (root+branch&cut) =    6.11 sec. (10007.83 ticks)
Gap: 40.95%
Upper bound: 2.30227e+06
Lower bound: 1.35956e+06
End of CPLEX run. Time: 6.11657 seconds

===== New CPLEX run =====
Instance: /home/yorig/tuner/mpils-tests/instances/miplib/easy/lotsize.mps
Config: /scratch/yorig/mpils-results-grid-ticks-10000/easy/16proc/seed-9/4_lotsize_seed-9_20260425_202405/iterated_local_search/run_2_worker_7/ils_config_10033267277061481840.prm
========================

Selected objective sense:  MINIMIZE
Selected objective  name:  R1921
Selected RHS        name:  B
Selected bound      name:  BOUND
Version identifier: 22.1.2.0 | 2024-11-26 | 0edbb82fd
CPXPARAM_Threads                                 8
CPXPARAM_Parallel                                1
CPXPARAM_MIP_Cuts_Cliques                        -1
CPXPARAM_MIP_Strategy_VariableSelect             -1
CPXPARAM_MIP_Cuts_Implied                        2
CPXPARAM_MIP_Cuts_GUBCovers                      1
CPXPARAM_MIP_Limits_GomoryCand                   100
CPXPARAM_MIP_Cuts_Gomory                         -1
CPXPARAM_MIP_Cuts_PathCut                        1
CPXPARAM_MIP_Cuts_MIRCut                         2
CPXPARAM_MIP_Cuts_Disjunctive                    -1
CPXPARAM_Emphasis_MIP                            3
CPXPARAM_DetTimeLimit                            10000
Tried aggregator 1 time.
MIP Presolve eliminated 595 rows and 0 columns.
MIP Presolve added 1190 rows and 0 columns.
MIP Presolve modified 10 coefficients.
Reduced MIP has 2515 rows, 2985 columns, and 7755 nonzeros.
Reduced MIP has 1195 binaries, 0 generals, 0 SOSs, and 0 indicators.
Presolve time = 0.00 sec. (4.53 ticks)
Probing fixed 0 vars, tightened 5487 bounds.
Probing time = 0.01 sec. (18.38 ticks)
Tried aggregator 2 times.
Detecting symmetries...
MIP Presolve modified 1206 coefficients.
Aggregator did 10 substitutions.
Reduced MIP has 2505 rows, 2975 columns, and 7735 nonzeros.
Reduced MIP has 1195 binaries, 0 generals, 0 SOSs, and 0 indicators.
Presolve time = 0.00 sec. (6.66 ticks)
Probing fixed 0 vars, tightened 2401 bounds.
Probing time = 0.00 sec. (6.41 ticks)
Clique table members: 160.
MIP emphasis: best bound.
MIP search method: dynamic search.
Parallel mode: deterministic, using up to 8 threads.
Root relaxation solution time = 0.01 sec. (9.68 ticks)

        Nodes                                         Cuts/
   Node  Left     Objective  IInf  Best Integer    Best Bound    ItCnt     Gap

      0     0   348385.3466   472                 348385.3466      882         
      0     0   577159.3578   441                   Cuts: 726     1820         
      0     0   815091.0851   708                   Cuts: 726     2712         
*     0+    0                       1.01740e+07   815091.0851            91.99%
*     0+    0                      7973370.0000   815091.0851            89.78%
      0     0   939148.0819   671  7973370.0000     Cuts: 726     3393   88.22%
      0     0  1022684.6217   760  7973370.0000     Cuts: 726     4081   86.94%
*     0+    0                      2368377.0000  1041513.4298            56.02%
      0     0  1143363.1044   710  2368377.0000     Cuts: 726     4799   50.90%
Detecting symmetries...
      0     0  1209843.6380   740  2368377.0000     Cuts: 726     5455   47.90%
      0     0  1262637.9076   746  2368377.0000     Cuts: 726     6367   46.01%
      0     0  1299334.8904   804  2368377.0000     Cuts: 726     7063   45.14%
      0     0  1315263.7537   842  2368377.0000     Cuts: 604     7534   44.47%
      0     0  1326409.8824   826  2368377.0000     Cuts: 551     7947   43.99%
      0     0  1332103.2461   839  2368377.0000     Cuts: 311     8229   43.75%
      0     0  1335072.2256   857  2368377.0000     Cuts: 351     8497   43.63%
      0     0  1337186.9983   879  2368377.0000     Cuts: 188     8676   43.54%
      0     0  1338704.3514   863  2368377.0000     Cuts: 178     8837   43.48%
      0     0  1339909.4714   846  2368377.0000     Cuts: 153     8974   43.42%
      0     0  1340781.1226   841  2368377.0000     Cuts: 206     9096   43.39%
      0     0  1341607.6442   849  2368377.0000     Cuts: 128     9220   43.35%
      0     0  1342297.9461   854  2368377.0000     Cuts: 174     9338   43.32%
      0     0  1342815.1925   872  2368377.0000      Cuts: 93     9405   43.30%
      0     0  1343020.1923   873  2368377.0000      Cuts: 56     9472   43.29%
*     0+    0                      2364869.0000  1343020.1923            43.21%
      0     0  1343112.1322   869  2364869.0000      Cuts: 58     9510   43.21%
*     0+    0                      2014707.0000  1343112.1322            33.33%
Detecting symmetries...
      0     2  1343112.1322   869  2014707.0000  1343112.1322     9510   33.33%
Elapsed time = 5.73 sec. (9677.05 ticks, tree = 0.02 MB, solutions = 5)
     14    13  1344628.1661   849  2014707.0000  1344444.0616    10442   33.27%

GUB cover cuts applied:  0
Cover cuts applied:  10
Implied bound cuts applied:  25
Flow cuts applied:  480
Mixed integer rounding cuts applied:  1148
Flow path cuts applied:  27
Multi commodity flow cuts applied:  53
Lift and project cuts applied:  42

Root node processing (before b&c):
  Real time             =    5.71 sec. (9669.87 ticks)
Parallel b&c, 8 threads:
  Real time             =    0.21 sec. (341.53 ticks)
  Sync time (average)   =    0.06 sec.
  Wait time (average)   =    0.00 sec.
                          ------------
Total (root+branch&cut) =    5.92 sec. (10011.40 ticks)
Gap: 33.26%
Upper bound: 2.01471e+06
Lower bound: 1.34465e+06
End of CPLEX run. Time: 5.92451 seconds

===== New CPLEX run =====
Instance: /home/yorig/tuner/mpils-tests/instances/miplib/easy/lotsize.mps
Config: /scratch/yorig/mpils-results-grid-ticks-10000/easy/16proc/seed-9/4_lotsize_seed-9_20260425_202405/iterated_local_search/run_2_worker_7/ils_config_139883141463083112.prm
========================

Selected objective sense:  MINIMIZE
Selected objective  name:  R1921
Selected RHS        name:  B
Selected bound      name:  BOUND
Version identifier: 22.1.2.0 | 2024-11-26 | 0edbb82fd
CPXPARAM_Threads                                 8
CPXPARAM_Parallel                                1
CPXPARAM_MIP_Cuts_Cliques                        -1
CPXPARAM_MIP_Strategy_VariableSelect             4
CPXPARAM_MIP_Cuts_Implied                        2
CPXPARAM_MIP_Cuts_GUBCovers                      -1
CPXPARAM_MIP_Limits_GomoryCand                   100
CPXPARAM_MIP_Cuts_Gomory                         -1
CPXPARAM_MIP_Cuts_PathCut                        1
CPXPARAM_MIP_Cuts_MIRCut                         2
CPXPARAM_MIP_Cuts_Disjunctive                    -1
CPXPARAM_Emphasis_MIP                            3
CPXPARAM_DetTimeLimit                            10000
Tried aggregator 1 time.
MIP Presolve eliminated 595 rows and 0 columns.
MIP Presolve added 1190 rows and 0 columns.
MIP Presolve modified 10 coefficients.
Reduced MIP has 2515 rows, 2985 columns, and 7755 nonzeros.
Reduced MIP has 1195 binaries, 0 generals, 0 SOSs, and 0 indicators.
Presolve time = 0.00 sec. (4.53 ticks)
Probing fixed 0 vars, tightened 5487 bounds.
Probing time = 0.01 sec. (18.38 ticks)
Tried aggregator 2 times.
Detecting symmetries...
MIP Presolve modified 1206 coefficients.
Aggregator did 10 substitutions.
Reduced MIP has 2505 rows, 2975 columns, and 7735 nonzeros.
Reduced MIP has 1195 binaries, 0 generals, 0 SOSs, and 0 indicators.
Presolve time = 0.00 sec. (6.66 ticks)
Probing fixed 0 vars, tightened 2401 bounds.
Probing time = 0.00 sec. (6.41 ticks)
Clique table members: 160.
MIP emphasis: best bound.
MIP search method: dynamic search.
Parallel mode: deterministic, using up to 8 threads.
Root relaxation solution time = 0.01 sec. (9.68 ticks)

        Nodes                                         Cuts/
   Node  Left     Objective  IInf  Best Integer    Best Bound    ItCnt     Gap

      0     0   348385.3466   472                 348385.3466      882         
      0     0   577159.3578   441                   Cuts: 726     1820         
      0     0   815091.0851   708                   Cuts: 726     2712         
*     0+    0                       1.01740e+07   815091.0851            91.99%
*     0+    0                      7973370.0000   815091.0851            89.78%
      0     0   939148.0819   671  7973370.0000     Cuts: 726     3393   88.22%
      0     0  1022684.6217   760  7973370.0000     Cuts: 726     4081   86.94%
*     0+    0                      2016180.0000  1041513.4298            48.34%
      0     0  1143363.1044   710  2016180.0000     Cuts: 726     4799   40.14%
Detecting symmetries...
      0     0  1217261.5900   712  2016180.0000     Cuts: 726     5460   38.80%
      0     0  1267107.3654   740  2016180.0000     Cuts: 726     6126   37.12%
      0     0  1297737.4566   780  2016180.0000     Cuts: 726     6843   35.63%
      0     0  1313961.6990   814  2016180.0000     Cuts: 636     7288   34.83%
      0     0  1322613.1167   815  2016180.0000     Cuts: 435     7699   34.40%
*     0+    0                      2011224.0000  1322613.1167            34.24%
      0     0  1328861.4468   806  2011224.0000     Cuts: 442     8128   33.93%
*     0+    0                      1997824.0000  1328861.4468            33.48%
      0     0  1333386.4125   823  1997824.0000     Cuts: 267     8422   33.26%
      0     0  1336629.5233   825  1997824.0000     Cuts: 231     8677   33.10%
      0     0  1338853.8007   833  1997824.0000     Cuts: 306     8880   32.98%
      0     0  1341287.2385   819  1997824.0000     Cuts: 169     9076   32.86%
      0     0  1342880.6072   842  1997824.0000     Cuts: 179     9233   32.78%
      0     0  1343970.0277   852  1997824.0000     Cuts: 170     9371   32.73%
      0     0  1344540.2233   861  1997824.0000      Cuts: 69     9455   32.70%
      0     0  1344935.9840   860  1997824.0000      Cuts: 72     9543   32.68%
      0     0  1345726.5838   862  1997824.0000      Cuts: 80     9661   32.64%
      0     0  1346141.2938   862  1997824.0000     Cuts: 105     9798   32.62%
      0     0  1347004.7269   858  1997824.0000     Cuts: 120     9925   32.58%
      0     0  1347382.0539   863  1997824.0000      Cuts: 78    10005   32.56%
      0     0  1347666.5594   857  1997824.0000      Cuts: 42    10051   32.54%
*     0+    0                      1958157.0000  1347666.5594            31.18%
      0     0  1348283.8975   863  1958157.0000      Cuts: 47    10112   31.15%
      0     0  1348508.2111   859  1958157.0000      Cuts: 46    10151   31.13%
*     0+    0                      1938243.0000  1348508.2111            30.43%
Detecting symmetries...
      0     2  1348508.2111   859  1938243.0000  1348508.2111    10151   30.43%
Elapsed time = 5.98 sec. (9973.00 ticks, tree = 0.02 MB, solutions = 7)

Cover cuts applied:  10
Implied bound cuts applied:  21
Flow cuts applied:  372
Mixed integer rounding cuts applied:  1090
Flow path cuts applied:  28
Multi commodity flow cuts applied:  45
Lift and project cuts applied:  36

Root node processing (before b&c):
  Real time             =    5.96 sec. (9965.52 ticks)
Parallel b&c, 8 threads:
  Real time             =    0.03 sec. (38.04 ticks)
  Sync time (average)   =    0.02 sec.
  Wait time (average)   =    0.00 sec.
                          ------------
Total (root+branch&cut) =    6.00 sec. (10003.56 ticks)
Gap: 30.43%
Upper bound: 1.93824e+06
Lower bound: 1.34851e+06
End of CPLEX run. Time: 6.00014 seconds
